<!DOCTYPE html>
<!--[if IE]><![endif]-->
<html>
  
  <head>
    <meta charset="utf-8">
    <meta http-equiv="X-UA-Compatible" content="IE=edge,chrome=1">
    <title>Interface IParametricCurve2d
   | ViRGIS VR GIS </title>
    <meta name="viewport" content="width=device-width">
    <meta name="title" content="Interface IParametricCurve2d
   | ViRGIS VR GIS ">
    <meta name="generator" content="docfx 2.54.0.0">
    
    <link rel="shortcut icon" href="../favicon.ico">
    <link rel="stylesheet" href="../styles/docfx.vendor.css">
    <link rel="stylesheet" href="../styles/docfx.css">
    <link rel="stylesheet" href="../styles/main.css">
    <meta property="docfx:navrel" content="../toc.html">
    <meta property="docfx:tocrel" content="toc.html">
    
    <meta property="docfx:rel" content="../">
    
  </head>
  <body data-spy="scroll" data-target="#affix" data-offset="120">
    <div id="wrapper">
      <header>
        
        <nav id="autocollapse" class="navbar navbar-inverse ng-scope" role="navigation">
          <div class="container">
            <div class="navbar-header">
              <button type="button" class="navbar-toggle" data-toggle="collapse" data-target="#navbar">
                <span class="sr-only">Toggle navigation</span>
                <span class="icon-bar"></span>
                <span class="icon-bar"></span>
                <span class="icon-bar"></span>
              </button>
              
              <a class="navbar-brand" href="../index.html">
                <img id="logo" class="svg" src="../logo.svg" alt="">
              </a>
            </div>
            <div class="collapse navbar-collapse" id="navbar">
              <form class="navbar-form navbar-right" role="search" id="search">
                <div class="form-group">
                  <input type="text" class="form-control" id="search-query" placeholder="Search" autocomplete="off">
                </div>
              </form>
            </div>
          </div>
        </nav>
        
        <div class="subnav navbar navbar-default">
          <div class="container hide-when-search" id="breadcrumb">
            <ul class="breadcrumb">
              <li></li>
            </ul>
          </div>
        </div>
      </header>
      <div class="container body-content">
        
        <div id="search-results">
          <div class="search-list"></div>
          <div class="sr-items">
            <p><i class="glyphicon glyphicon-refresh index-loading"></i></p>
          </div>
          <ul id="pagination"></ul>
        </div>
      </div>
      <div role="main" class="container body-content hide-when-search">
        
        <div class="sidenav hide-when-search">
          <a class="btn toc-toggle collapse" data-toggle="collapse" href="#sidetoggle" aria-expanded="false" aria-controls="sidetoggle">Show / Hide Table of Contents</a>
          <div class="sidetoggle collapse" id="sidetoggle">
            <div id="sidetoc"></div>
          </div>
        </div>
        <div class="article row grid-right">
          <div class="col-md-10">
            <article class="content wrap" id="_content" data-uid="g3.IParametricCurve2d">
  
  
  <h1 id="g3_IParametricCurve2d" data-uid="g3.IParametricCurve2d" class="text-break">Interface IParametricCurve2d
  </h1>
  <div class="markdown level0 summary"></div>
  <div class="markdown level0 conceptual"></div>
  <h6><strong>Namespace</strong>: <a class="xref" href="g3.html">g3</a></h6>
  <h6><strong>Assembly</strong>: geometry3Sharp.dll</h6>
  <h5 id="g3_IParametricCurve2d_syntax">Syntax</h5>
  <div class="codewrapper">
    <pre><code class="lang-csharp hljs">public interface IParametricCurve2d</code></pre>
  </div>
  <h3 id="properties">Properties
  </h3>
  <span class="small pull-right mobile-hide">
    <span class="divider">|</span>
    <a href="https://github.com/runette/ViRGIS/new/gh-pages/apiSpec/new?filename=g3_IParametricCurve2d_ArcLength.md&amp;value=---%0Auid%3A%20g3.IParametricCurve2d.ArcLength%0Asummary%3A%20'*You%20can%20override%20summary%20for%20the%20API%20here%20using%20*MARKDOWN*%20syntax'%0A---%0A%0A*Please%20type%20below%20more%20information%20about%20this%20API%3A*%0A%0A">Improve this Doc</a>
  </span>
  <span class="small pull-right mobile-hide">
    <a href="https://github.com/runette/ViRGIS/blob/gh-pages/Assets/geometry3Sharp/curve/ICurve.cs/#L57">View Source</a>
  </span>
  <a id="g3_IParametricCurve2d_ArcLength_" data-uid="g3.IParametricCurve2d.ArcLength*"></a>
  <h4 id="g3_IParametricCurve2d_ArcLength" data-uid="g3.IParametricCurve2d.ArcLength">ArcLength</h4>
  <div class="markdown level1 summary"></div>
  <div class="markdown level1 conceptual"></div>
  <h5 class="decalaration">Declaration</h5>
  <div class="codewrapper">
    <pre><code class="lang-csharp hljs">double ArcLength { get; }</code></pre>
  </div>
  <h5 class="propertyValue">Property Value</h5>
  <table class="table table-bordered table-striped table-condensed">
    <thead>
      <tr>
        <th>Type</th>
        <th>Description</th>
      </tr>
    </thead>
    <tbody>
      <tr>
        <td><a class="xref" href="https://docs.microsoft.com/dotnet/api/system.double">Double</a></td>
        <td></td>
      </tr>
    </tbody>
  </table>
  <span class="small pull-right mobile-hide">
    <span class="divider">|</span>
    <a href="https://github.com/runette/ViRGIS/new/gh-pages/apiSpec/new?filename=g3_IParametricCurve2d_HasArcLength.md&amp;value=---%0Auid%3A%20g3.IParametricCurve2d.HasArcLength%0Asummary%3A%20'*You%20can%20override%20summary%20for%20the%20API%20here%20using%20*MARKDOWN*%20syntax'%0A---%0A%0A*Please%20type%20below%20more%20information%20about%20this%20API%3A*%0A%0A">Improve this Doc</a>
  </span>
  <span class="small pull-right mobile-hide">
    <a href="https://github.com/runette/ViRGIS/blob/gh-pages/Assets/geometry3Sharp/curve/ICurve.cs/#L56">View Source</a>
  </span>
  <a id="g3_IParametricCurve2d_HasArcLength_" data-uid="g3.IParametricCurve2d.HasArcLength*"></a>
  <h4 id="g3_IParametricCurve2d_HasArcLength" data-uid="g3.IParametricCurve2d.HasArcLength">HasArcLength</h4>
  <div class="markdown level1 summary"></div>
  <div class="markdown level1 conceptual"></div>
  <h5 class="decalaration">Declaration</h5>
  <div class="codewrapper">
    <pre><code class="lang-csharp hljs">bool HasArcLength { get; }</code></pre>
  </div>
  <h5 class="propertyValue">Property Value</h5>
  <table class="table table-bordered table-striped table-condensed">
    <thead>
      <tr>
        <th>Type</th>
        <th>Description</th>
      </tr>
    </thead>
    <tbody>
      <tr>
        <td><a class="xref" href="https://docs.microsoft.com/dotnet/api/system.boolean">Boolean</a></td>
        <td></td>
      </tr>
    </tbody>
  </table>
  <span class="small pull-right mobile-hide">
    <span class="divider">|</span>
    <a href="https://github.com/runette/ViRGIS/new/gh-pages/apiSpec/new?filename=g3_IParametricCurve2d_IsClosed.md&amp;value=---%0Auid%3A%20g3.IParametricCurve2d.IsClosed%0Asummary%3A%20'*You%20can%20override%20summary%20for%20the%20API%20here%20using%20*MARKDOWN*%20syntax'%0A---%0A%0A*Please%20type%20below%20more%20information%20about%20this%20API%3A*%0A%0A">Improve this Doc</a>
  </span>
  <span class="small pull-right mobile-hide">
    <a href="https://github.com/runette/ViRGIS/blob/gh-pages/Assets/geometry3Sharp/curve/ICurve.cs/#L49">View Source</a>
  </span>
  <a id="g3_IParametricCurve2d_IsClosed_" data-uid="g3.IParametricCurve2d.IsClosed*"></a>
  <h4 id="g3_IParametricCurve2d_IsClosed" data-uid="g3.IParametricCurve2d.IsClosed">IsClosed</h4>
  <div class="markdown level1 summary"></div>
  <div class="markdown level1 conceptual"></div>
  <h5 class="decalaration">Declaration</h5>
  <div class="codewrapper">
    <pre><code class="lang-csharp hljs">bool IsClosed { get; }</code></pre>
  </div>
  <h5 class="propertyValue">Property Value</h5>
  <table class="table table-bordered table-striped table-condensed">
    <thead>
      <tr>
        <th>Type</th>
        <th>Description</th>
      </tr>
    </thead>
    <tbody>
      <tr>
        <td><a class="xref" href="https://docs.microsoft.com/dotnet/api/system.boolean">Boolean</a></td>
        <td></td>
      </tr>
    </tbody>
  </table>
  <span class="small pull-right mobile-hide">
    <span class="divider">|</span>
    <a href="https://github.com/runette/ViRGIS/new/gh-pages/apiSpec/new?filename=g3_IParametricCurve2d_IsTransformable.md&amp;value=---%0Auid%3A%20g3.IParametricCurve2d.IsTransformable%0Asummary%3A%20'*You%20can%20override%20summary%20for%20the%20API%20here%20using%20*MARKDOWN*%20syntax'%0A---%0A%0A*Please%20type%20below%20more%20information%20about%20this%20API%3A*%0A%0A">Improve this Doc</a>
  </span>
  <span class="small pull-right mobile-hide">
    <a href="https://github.com/runette/ViRGIS/blob/gh-pages/Assets/geometry3Sharp/curve/ICurve.cs/#L62">View Source</a>
  </span>
  <a id="g3_IParametricCurve2d_IsTransformable_" data-uid="g3.IParametricCurve2d.IsTransformable*"></a>
  <h4 id="g3_IParametricCurve2d_IsTransformable" data-uid="g3.IParametricCurve2d.IsTransformable">IsTransformable</h4>
  <div class="markdown level1 summary"></div>
  <div class="markdown level1 conceptual"></div>
  <h5 class="decalaration">Declaration</h5>
  <div class="codewrapper">
    <pre><code class="lang-csharp hljs">bool IsTransformable { get; }</code></pre>
  </div>
  <h5 class="propertyValue">Property Value</h5>
  <table class="table table-bordered table-striped table-condensed">
    <thead>
      <tr>
        <th>Type</th>
        <th>Description</th>
      </tr>
    </thead>
    <tbody>
      <tr>
        <td><a class="xref" href="https://docs.microsoft.com/dotnet/api/system.boolean">Boolean</a></td>
        <td></td>
      </tr>
    </tbody>
  </table>
  <span class="small pull-right mobile-hide">
    <span class="divider">|</span>
    <a href="https://github.com/runette/ViRGIS/new/gh-pages/apiSpec/new?filename=g3_IParametricCurve2d_ParamLength.md&amp;value=---%0Auid%3A%20g3.IParametricCurve2d.ParamLength%0Asummary%3A%20'*You%20can%20override%20summary%20for%20the%20API%20here%20using%20*MARKDOWN*%20syntax'%0A---%0A%0A*Please%20type%20below%20more%20information%20about%20this%20API%3A*%0A%0A">Improve this Doc</a>
  </span>
  <span class="small pull-right mobile-hide">
    <a href="https://github.com/runette/ViRGIS/blob/gh-pages/Assets/geometry3Sharp/curve/ICurve.cs/#L52">View Source</a>
  </span>
  <a id="g3_IParametricCurve2d_ParamLength_" data-uid="g3.IParametricCurve2d.ParamLength*"></a>
  <h4 id="g3_IParametricCurve2d_ParamLength" data-uid="g3.IParametricCurve2d.ParamLength">ParamLength</h4>
  <div class="markdown level1 summary"></div>
  <div class="markdown level1 conceptual"></div>
  <h5 class="decalaration">Declaration</h5>
  <div class="codewrapper">
    <pre><code class="lang-csharp hljs">double ParamLength { get; }</code></pre>
  </div>
  <h5 class="propertyValue">Property Value</h5>
  <table class="table table-bordered table-striped table-condensed">
    <thead>
      <tr>
        <th>Type</th>
        <th>Description</th>
      </tr>
    </thead>
    <tbody>
      <tr>
        <td><a class="xref" href="https://docs.microsoft.com/dotnet/api/system.double">Double</a></td>
        <td></td>
      </tr>
    </tbody>
  </table>
  <h3 id="methods">Methods
  </h3>
  <span class="small pull-right mobile-hide">
    <span class="divider">|</span>
    <a href="https://github.com/runette/ViRGIS/new/gh-pages/apiSpec/new?filename=g3_IParametricCurve2d_Clone.md&amp;value=---%0Auid%3A%20g3.IParametricCurve2d.Clone%0Asummary%3A%20'*You%20can%20override%20summary%20for%20the%20API%20here%20using%20*MARKDOWN*%20syntax'%0A---%0A%0A*Please%20type%20below%20more%20information%20about%20this%20API%3A*%0A%0A">Improve this Doc</a>
  </span>
  <span class="small pull-right mobile-hide">
    <a href="https://github.com/runette/ViRGIS/blob/gh-pages/Assets/geometry3Sharp/curve/ICurve.cs/#L65">View Source</a>
  </span>
  <a id="g3_IParametricCurve2d_Clone_" data-uid="g3.IParametricCurve2d.Clone*"></a>
  <h4 id="g3_IParametricCurve2d_Clone" data-uid="g3.IParametricCurve2d.Clone">Clone()</h4>
  <div class="markdown level1 summary"></div>
  <div class="markdown level1 conceptual"></div>
  <h5 class="decalaration">Declaration</h5>
  <div class="codewrapper">
    <pre><code class="lang-csharp hljs">IParametricCurve2d Clone()</code></pre>
  </div>
  <h5 class="returns">Returns</h5>
  <table class="table table-bordered table-striped table-condensed">
    <thead>
      <tr>
        <th>Type</th>
        <th>Description</th>
      </tr>
    </thead>
    <tbody>
      <tr>
        <td><a class="xref" href="g3.IParametricCurve2d.html">IParametricCurve2d</a></td>
        <td></td>
      </tr>
    </tbody>
  </table>
  <span class="small pull-right mobile-hide">
    <span class="divider">|</span>
    <a href="https://github.com/runette/ViRGIS/new/gh-pages/apiSpec/new?filename=g3_IParametricCurve2d_Reverse.md&amp;value=---%0Auid%3A%20g3.IParametricCurve2d.Reverse%0Asummary%3A%20'*You%20can%20override%20summary%20for%20the%20API%20here%20using%20*MARKDOWN*%20syntax'%0A---%0A%0A*Please%20type%20below%20more%20information%20about%20this%20API%3A*%0A%0A">Improve this Doc</a>
  </span>
  <span class="small pull-right mobile-hide">
    <a href="https://github.com/runette/ViRGIS/blob/gh-pages/Assets/geometry3Sharp/curve/ICurve.cs/#L60">View Source</a>
  </span>
  <a id="g3_IParametricCurve2d_Reverse_" data-uid="g3.IParametricCurve2d.Reverse*"></a>
  <h4 id="g3_IParametricCurve2d_Reverse" data-uid="g3.IParametricCurve2d.Reverse">Reverse()</h4>
  <div class="markdown level1 summary"></div>
  <div class="markdown level1 conceptual"></div>
  <h5 class="decalaration">Declaration</h5>
  <div class="codewrapper">
    <pre><code class="lang-csharp hljs">void Reverse()</code></pre>
  </div>
  <span class="small pull-right mobile-hide">
    <span class="divider">|</span>
    <a href="https://github.com/runette/ViRGIS/new/gh-pages/apiSpec/new?filename=g3_IParametricCurve2d_SampleArcLength_System_Double_.md&amp;value=---%0Auid%3A%20g3.IParametricCurve2d.SampleArcLength(System.Double)%0Asummary%3A%20'*You%20can%20override%20summary%20for%20the%20API%20here%20using%20*MARKDOWN*%20syntax'%0A---%0A%0A*Please%20type%20below%20more%20information%20about%20this%20API%3A*%0A%0A">Improve this Doc</a>
  </span>
  <span class="small pull-right mobile-hide">
    <a href="https://github.com/runette/ViRGIS/blob/gh-pages/Assets/geometry3Sharp/curve/ICurve.cs/#L58">View Source</a>
  </span>
  <a id="g3_IParametricCurve2d_SampleArcLength_" data-uid="g3.IParametricCurve2d.SampleArcLength*"></a>
  <h4 id="g3_IParametricCurve2d_SampleArcLength_System_Double_" data-uid="g3.IParametricCurve2d.SampleArcLength(System.Double)">SampleArcLength(Double)</h4>
  <div class="markdown level1 summary"></div>
  <div class="markdown level1 conceptual"></div>
  <h5 class="decalaration">Declaration</h5>
  <div class="codewrapper">
    <pre><code class="lang-csharp hljs">Vector2d SampleArcLength(double a)</code></pre>
  </div>
  <h5 class="parameters">Parameters</h5>
  <table class="table table-bordered table-striped table-condensed">
    <thead>
      <tr>
        <th>Type</th>
        <th>Name</th>
        <th>Description</th>
      </tr>
    </thead>
    <tbody>
      <tr>
        <td><a class="xref" href="https://docs.microsoft.com/dotnet/api/system.double">Double</a></td>
        <td><span class="parametername">a</span></td>
        <td></td>
      </tr>
    </tbody>
  </table>
  <h5 class="returns">Returns</h5>
  <table class="table table-bordered table-striped table-condensed">
    <thead>
      <tr>
        <th>Type</th>
        <th>Description</th>
      </tr>
    </thead>
    <tbody>
      <tr>
        <td><a class="xref" href="g3.Vector2d.html">Vector2d</a></td>
        <td></td>
      </tr>
    </tbody>
  </table>
  <span class="small pull-right mobile-hide">
    <span class="divider">|</span>
    <a href="https://github.com/runette/ViRGIS/new/gh-pages/apiSpec/new?filename=g3_IParametricCurve2d_SampleT_System_Double_.md&amp;value=---%0Auid%3A%20g3.IParametricCurve2d.SampleT(System.Double)%0Asummary%3A%20'*You%20can%20override%20summary%20for%20the%20API%20here%20using%20*MARKDOWN*%20syntax'%0A---%0A%0A*Please%20type%20below%20more%20information%20about%20this%20API%3A*%0A%0A">Improve this Doc</a>
  </span>
  <span class="small pull-right mobile-hide">
    <a href="https://github.com/runette/ViRGIS/blob/gh-pages/Assets/geometry3Sharp/curve/ICurve.cs/#L53">View Source</a>
  </span>
  <a id="g3_IParametricCurve2d_SampleT_" data-uid="g3.IParametricCurve2d.SampleT*"></a>
  <h4 id="g3_IParametricCurve2d_SampleT_System_Double_" data-uid="g3.IParametricCurve2d.SampleT(System.Double)">SampleT(Double)</h4>
  <div class="markdown level1 summary"></div>
  <div class="markdown level1 conceptual"></div>
  <h5 class="decalaration">Declaration</h5>
  <div class="codewrapper">
    <pre><code class="lang-csharp hljs">Vector2d SampleT(double t)</code></pre>
  </div>
  <h5 class="parameters">Parameters</h5>
  <table class="table table-bordered table-striped table-condensed">
    <thead>
      <tr>
        <th>Type</th>
        <th>Name</th>
        <th>Description</th>
      </tr>
    </thead>
    <tbody>
      <tr>
        <td><a class="xref" href="https://docs.microsoft.com/dotnet/api/system.double">Double</a></td>
        <td><span class="parametername">t</span></td>
        <td></td>
      </tr>
    </tbody>
  </table>
  <h5 class="returns">Returns</h5>
  <table class="table table-bordered table-striped table-condensed">
    <thead>
      <tr>
        <th>Type</th>
        <th>Description</th>
      </tr>
    </thead>
    <tbody>
      <tr>
        <td><a class="xref" href="g3.Vector2d.html">Vector2d</a></td>
        <td></td>
      </tr>
    </tbody>
  </table>
  <span class="small pull-right mobile-hide">
    <span class="divider">|</span>
    <a href="https://github.com/runette/ViRGIS/new/gh-pages/apiSpec/new?filename=g3_IParametricCurve2d_TangentT_System_Double_.md&amp;value=---%0Auid%3A%20g3.IParametricCurve2d.TangentT(System.Double)%0Asummary%3A%20'*You%20can%20override%20summary%20for%20the%20API%20here%20using%20*MARKDOWN*%20syntax'%0A---%0A%0A*Please%20type%20below%20more%20information%20about%20this%20API%3A*%0A%0A">Improve this Doc</a>
  </span>
  <span class="small pull-right mobile-hide">
    <a href="https://github.com/runette/ViRGIS/blob/gh-pages/Assets/geometry3Sharp/curve/ICurve.cs/#L54">View Source</a>
  </span>
  <a id="g3_IParametricCurve2d_TangentT_" data-uid="g3.IParametricCurve2d.TangentT*"></a>
  <h4 id="g3_IParametricCurve2d_TangentT_System_Double_" data-uid="g3.IParametricCurve2d.TangentT(System.Double)">TangentT(Double)</h4>
  <div class="markdown level1 summary"></div>
  <div class="markdown level1 conceptual"></div>
  <h5 class="decalaration">Declaration</h5>
  <div class="codewrapper">
    <pre><code class="lang-csharp hljs">Vector2d TangentT(double t)</code></pre>
  </div>
  <h5 class="parameters">Parameters</h5>
  <table class="table table-bordered table-striped table-condensed">
    <thead>
      <tr>
        <th>Type</th>
        <th>Name</th>
        <th>Description</th>
      </tr>
    </thead>
    <tbody>
      <tr>
        <td><a class="xref" href="https://docs.microsoft.com/dotnet/api/system.double">Double</a></td>
        <td><span class="parametername">t</span></td>
        <td></td>
      </tr>
    </tbody>
  </table>
  <h5 class="returns">Returns</h5>
  <table class="table table-bordered table-striped table-condensed">
    <thead>
      <tr>
        <th>Type</th>
        <th>Description</th>
      </tr>
    </thead>
    <tbody>
      <tr>
        <td><a class="xref" href="g3.Vector2d.html">Vector2d</a></td>
        <td></td>
      </tr>
    </tbody>
  </table>
  <span class="small pull-right mobile-hide">
    <span class="divider">|</span>
    <a href="https://github.com/runette/ViRGIS/new/gh-pages/apiSpec/new?filename=g3_IParametricCurve2d_Transform_g3_ITransform2_.md&amp;value=---%0Auid%3A%20g3.IParametricCurve2d.Transform(g3.ITransform2)%0Asummary%3A%20'*You%20can%20override%20summary%20for%20the%20API%20here%20using%20*MARKDOWN*%20syntax'%0A---%0A%0A*Please%20type%20below%20more%20information%20about%20this%20API%3A*%0A%0A">Improve this Doc</a>
  </span>
  <span class="small pull-right mobile-hide">
    <a href="https://github.com/runette/ViRGIS/blob/gh-pages/Assets/geometry3Sharp/curve/ICurve.cs/#L63">View Source</a>
  </span>
  <a id="g3_IParametricCurve2d_Transform_" data-uid="g3.IParametricCurve2d.Transform*"></a>
  <h4 id="g3_IParametricCurve2d_Transform_g3_ITransform2_" data-uid="g3.IParametricCurve2d.Transform(g3.ITransform2)">Transform(ITransform2)</h4>
  <div class="markdown level1 summary"></div>
  <div class="markdown level1 conceptual"></div>
  <h5 class="decalaration">Declaration</h5>
  <div class="codewrapper">
    <pre><code class="lang-csharp hljs">void Transform(ITransform2 xform)</code></pre>
  </div>
  <h5 class="parameters">Parameters</h5>
  <table class="table table-bordered table-striped table-condensed">
    <thead>
      <tr>
        <th>Type</th>
        <th>Name</th>
        <th>Description</th>
      </tr>
    </thead>
    <tbody>
      <tr>
        <td><a class="xref" href="g3.ITransform2.html">ITransform2</a></td>
        <td><span class="parametername">xform</span></td>
        <td></td>
      </tr>
    </tbody>
  </table>
</article>
          </div>
          
          <div class="hidden-sm col-md-2" role="complementary">
            <div class="sideaffix">
              <div class="contribution">
                <ul class="nav">
                  <li>
                    <a href="https://github.com/runette/ViRGIS/new/gh-pages/apiSpec/new?filename=g3_IParametricCurve2d.md&amp;value=---%0Auid%3A%20g3.IParametricCurve2d%0Asummary%3A%20'*You%20can%20override%20summary%20for%20the%20API%20here%20using%20*MARKDOWN*%20syntax'%0A---%0A%0A*Please%20type%20below%20more%20information%20about%20this%20API%3A*%0A%0A" class="contribution-link">Improve this Doc</a>
                  </li>
                  <li>
                    <a href="https://github.com/runette/ViRGIS/blob/gh-pages/Assets/geometry3Sharp/curve/ICurve.cs/#L47" class="contribution-link">View Source</a>
                  </li>
                </ul>
              </div>
              <nav class="bs-docs-sidebar hidden-print hidden-xs hidden-sm affix" id="affix">
              <!-- <p><a class="back-to-top" href="#top">Back to top</a><p> -->
              </nav>
            </div>
          </div>
        </div>
      </div>
      
      <footer>
        <div class="grad-bottom"></div>
        <div class="footer">
          <div class="container">
            <span class="pull-right">
              <a href="#top">Back to top</a>
            </span>
            ViRGIS VR GIS
            
          </div>
        </div>
      </footer>
    </div>
    
    <script type="text/javascript" src="../styles/docfx.vendor.js"></script>
    <script type="text/javascript" src="../styles/docfx.js"></script>
    <script type="text/javascript" src="../styles/main.js"></script>
  </body>
</html>
